#===============================================================================
# Created using the Atomic Simulation Environment (ASE)

# Fri Jun 19 16:47:30 2026

#=======================================================
lattice_vector -0.0000000717120000 5.4080218995199996 5.4080218996799996 
lattice_vector 5.4080219993440002 0.0000000352220000 5.4080219587940004 
lattice_vector 5.4080219996520000 5.4080219589420002 0.0000000351620000 
atom -0.0000000000937645 0.0070710678117609 0.0070710678119701 Si
atom 1.3520054900000003 1.3520054899999994 1.3520054900000000 Si
atom 2.7040109998259996 2.7040109794709992 0.0000000175810005 Si
atom 4.0560164898260007 4.0560164694710004 1.3520055075810005 Si
atom 8.1120329276120007 10.8160438760729978 8.1120329142389984 Si
atom 4.0560164896720012 1.3520055076109985 4.0560164693970018 Si
atom 5.4080219994980014 2.7040109970820003 2.7040109969780022 Si
atom 6.7600274894980021 4.0560164870819984 4.0560164869780015 Si
atom 5.4080219634879994 2.7040109849819998 8.1120329086339993 Si
atom 1.3520054541440001 4.0560164397599996 4.0560164398399996 Si
atom 2.7040109639700001 5.4080219292309986 2.7040109674210004 Si
atom 4.0560164539700008 6.7600274192310001 4.0560164574210020 Si
atom 2.7040109638160001 2.7040109673710000 5.4080219292370000 Si
atom 4.0560164538160004 4.0560164573709967 6.7600274192369998 Si
atom 5.4080219636419997 5.4080219468420001 5.4080219468179997 Si
atom 6.7600274536420013 6.7600274368419981 6.7600274368180013 Si
