#===============================================================================
# Created using the Atomic Simulation Environment (ASE)

# Fri Jun 19 16:47:26 2026

#=======================================================
lattice_vector -0.0000000717120000 5.4080218995199996 5.4080218996799996 
lattice_vector 5.4080219993440002 0.0000000352220000 5.4080219587940004 
lattice_vector 5.4080219996520000 5.4080219589420002 0.0000000351620000 
atom -0.0000000000937645 0.0070710678117609 0.0070710678119701 Si
atom -0.0000000358559999 2.7040109497599993 2.7040109498399993 Si
atom 2.7040109996720001 0.0000000176110000 2.7040109793970002 Si
atom 2.7040109638160001 2.7040109673709996 5.4080219292370000 Si
atom 2.7040109998260000 2.7040109794710001 0.0000000175810002 Si
atom 2.7040109639700001 5.4080219292309986 2.7040109674210004 Si
atom 5.4080219994980006 2.7040109970820003 2.7040109969780008 Si
atom 5.4080219636419997 5.4080219468420001 5.4080219468179997 Si
atom 1.3520054899999998 1.3520054899999994 1.3520054899999996 Si
atom 1.3520054541439999 4.0560164397600005 4.0560164398400005 Si
atom 4.0560164896720003 1.3520055076109996 4.0560164693970009 Si
atom 4.0560164538159995 4.0560164573709994 6.7600274192370016 Si
atom 4.0560164898259998 4.0560164694709995 1.3520055075809998 Si
atom 4.0560164539700008 6.7600274192310001 4.0560164574210011 Si
atom 6.7600274894980004 4.0560164870819992 4.0560164869780007 Si
atom 6.7600274536420004 6.7600274368419999 6.7600274368180013 Si
